(set-logic HORN)
(declare-fun assert_24_1_171_abs01 (Int Int Int Int Int Int Int) Bool)
(declare-fun assign_23_1_147_abs01 (Int Int Int Int Int Int Int) Bool)
(declare-fun assign_20_5_126_abs01 (Int Int Int Int Int Int Int) Bool)
(declare-fun arrayassign_19_5_117_abs01 (Int Int Int Int Int Int Int) Bool)
(declare-fun while_18_1_129_abs01 (Int Int Int Int Int Int Int) Bool)
(declare-fun assign_17_1_89_abs01 (Int Int Int Int Int Int Int) Bool)
(declare-fun assign_14_5_80_abs01 (Int Int Int Int Int Int Int) Bool)
(declare-fun arrayassign_13_5_71_abs01 (Int Int Int Int Int Int Int) Bool)
(declare-fun while_12_1_83_abs01 (Int Int Int Int Int Int Int) Bool)
(declare-fun assign_10_1_49_abs01 (Int Int Int Int Int Int Int) Bool)
(declare-fun assign_9_1_37_abs01 (Int Int Int Int Int Int Int) Bool)
(declare-fun end_abs01 (Int Int Int Int Int Int Int) Bool)
(declare-fun start_abs01 (Int Int Int Int Int Int Int) Bool)
(assert (forall ((a_copy (Array Int Int)) (a (Array Int Int)) (size Int) (k Int) (i Int) (vabs_f_f Int) (vabs_s_f_f Int)) (start_abs01 vabs_f_f (select a_copy vabs_f_f) vabs_s_f_f (select a vabs_s_f_f) size k i)))
(assert (forall ((i Int) (k Int) (size Int) (a (Array Int Int)) (a_copy (Array Int Int)) (vabs_0_f_f Int) (vabs_0_s_f_f Int)) (=> (start_abs01 vabs_0_f_f (select a_copy vabs_0_f_f) vabs_0_s_f_f (select a vabs_0_s_f_f) size k i) (assign_9_1_37_abs01 vabs_0_f_f (select a_copy vabs_0_f_f) vabs_0_s_f_f (select a vabs_0_s_f_f) size k i))))
(assert (forall ((i Int) (k Int) (size Int) (a (Array Int Int)) (a_copy (Array Int Int)) (vabs_0_f_f Int) (vabs_0_s_f_f Int)) (=> (assign_9_1_37_abs01 vabs_0_f_f (select a_copy vabs_0_f_f) vabs_0_s_f_f (select a vabs_0_s_f_f) size k i) (assign_10_1_49_abs01 vabs_0_f_f (select a_copy vabs_0_f_f) vabs_0_s_f_f (select a vabs_0_s_f_f) size k 0))))
(assert (forall ((rnd Int) (i Int) (k Int) (size Int) (a (Array Int Int)) (a_copy (Array Int Int)) (vabs_0_f_f Int) (vabs_0_s_f_f Int)) (=> (assign_10_1_49_abs01 vabs_0_f_f (select a_copy vabs_0_f_f) vabs_0_s_f_f (select a vabs_0_s_f_f) size k i) (while_12_1_83_abs01 vabs_0_f_f (select a_copy vabs_0_f_f) vabs_0_s_f_f (select a vabs_0_s_f_f) rnd k i))))
(assert (forall ((a_copy (Array Int Int)) (a (Array Int Int)) (size Int) (k Int) (i Int) (vabs_0_f_f Int) (vabs_0_s_f_f Int)) (=> (and (while_12_1_83_abs01 vabs_0_f_f (select a_copy vabs_0_f_f) vabs_0_s_f_f (select a vabs_0_s_f_f) size k i) (< i size)) (arrayassign_13_5_71_abs01 vabs_0_f_f (select a_copy vabs_0_f_f) vabs_0_s_f_f (select a vabs_0_s_f_f) size k i))))
(assert (forall ((a_copy (Array Int Int)) (a (Array Int Int)) (size Int) (k Int) (i Int) (vabs_0_f_f Int) (vabs_0_s_f_f Int)) (=> (and (while_12_1_83_abs01 vabs_0_f_f (select a_copy vabs_0_f_f) vabs_0_s_f_f (select a vabs_0_s_f_f) size k i) (not (< i size))) (assign_17_1_89_abs01 vabs_0_f_f (select a_copy vabs_0_f_f) vabs_0_s_f_f (select a vabs_0_s_f_f) size k i))))
(assert (forall ((i Int) (k Int) (size Int) (a (Array Int Int)) (a_copy (Array Int Int)) (vabs_0_f_f Int) (vabs_0_s_f_f Int)) (=> (and (arrayassign_13_5_71_abs01 vabs_0_f_f (select a_copy vabs_0_f_f) vabs_0_s_f_f (select a vabs_0_s_f_f) size k i) (arrayassign_13_5_71_abs01 vabs_0_f_f (select a_copy vabs_0_f_f) i (select a i) size k i)) (assign_14_5_80_abs01 vabs_0_f_f (select (store a_copy i (select a i)) vabs_0_f_f) vabs_0_s_f_f (select a vabs_0_s_f_f) size k i))))
(assert (forall ((i Int) (k Int) (size Int) (a (Array Int Int)) (a_copy (Array Int Int)) (vabs_0_f_f Int) (vabs_0_s_f_f Int)) (=> (assign_14_5_80_abs01 vabs_0_f_f (select a_copy vabs_0_f_f) vabs_0_s_f_f (select a vabs_0_s_f_f) size k i) (while_12_1_83_abs01 vabs_0_f_f (select a_copy vabs_0_f_f) vabs_0_s_f_f (select a vabs_0_s_f_f) size k (+ i 1)))))
(assert (forall ((i Int) (k Int) (size Int) (a (Array Int Int)) (a_copy (Array Int Int)) (vabs_0_f_f Int) (vabs_0_s_f_f Int)) (=> (assign_17_1_89_abs01 vabs_0_f_f (select a_copy vabs_0_f_f) vabs_0_s_f_f (select a vabs_0_s_f_f) size k i) (while_18_1_129_abs01 vabs_0_f_f (select a_copy vabs_0_f_f) vabs_0_s_f_f (select a vabs_0_s_f_f) size k 0))))
(assert (forall ((a_copy (Array Int Int)) (a (Array Int Int)) (size Int) (k Int) (i Int) (vabs_0_f_f Int) (vabs_0_s_f_f Int)) (=> (and (while_18_1_129_abs01 vabs_0_f_f (select a_copy vabs_0_f_f) vabs_0_s_f_f (select a vabs_0_s_f_f) size k i) (< i size)) (arrayassign_19_5_117_abs01 vabs_0_f_f (select a_copy vabs_0_f_f) vabs_0_s_f_f (select a vabs_0_s_f_f) size k i))))
(assert (forall ((a_copy (Array Int Int)) (a (Array Int Int)) (size Int) (k Int) (i Int) (vabs_0_f_f Int) (vabs_0_s_f_f Int)) (=> (and (while_18_1_129_abs01 vabs_0_f_f (select a_copy vabs_0_f_f) vabs_0_s_f_f (select a vabs_0_s_f_f) size k i) (not (< i size))) (assign_23_1_147_abs01 vabs_0_f_f (select a_copy vabs_0_f_f) vabs_0_s_f_f (select a vabs_0_s_f_f) size k i))))
(assert (forall ((i Int) (k Int) (size Int) (a (Array Int Int)) (a_copy (Array Int Int)) (vabs_0_f_f Int) (vabs_0_s_f_f Int)) (=> (and (arrayassign_19_5_117_abs01 (- (- size i) 1) (select a_copy (- (- size i) 1)) vabs_0_s_f_f (select a vabs_0_s_f_f) size k i) (arrayassign_19_5_117_abs01 vabs_0_f_f (select a_copy vabs_0_f_f) vabs_0_s_f_f (select a vabs_0_s_f_f) size k i)) (assign_20_5_126_abs01 vabs_0_f_f (select a_copy vabs_0_f_f) vabs_0_s_f_f (select (store a i (select a_copy (- (- size i) 1))) vabs_0_s_f_f) size k i))))
(assert (forall ((i Int) (k Int) (size Int) (a (Array Int Int)) (a_copy (Array Int Int)) (vabs_0_f_f Int) (vabs_0_s_f_f Int)) (=> (assign_20_5_126_abs01 vabs_0_f_f (select a_copy vabs_0_f_f) vabs_0_s_f_f (select a vabs_0_s_f_f) size k i) (while_18_1_129_abs01 vabs_0_f_f (select a_copy vabs_0_f_f) vabs_0_s_f_f (select a vabs_0_s_f_f) size k (+ i 1)))))
(assert (forall ((rnd Int) (a_copy (Array Int Int)) (a (Array Int Int)) (size Int) (k Int) (i Int) (vabs_0_f_f Int) (vabs_0_s_f_f Int)) (=> (and (assign_23_1_147_abs01 vabs_0_f_f (select a_copy vabs_0_f_f) vabs_0_s_f_f (select a vabs_0_s_f_f) size k i) (>= rnd 0) (< rnd (+ size 1))) (assert_24_1_171_abs01 vabs_0_f_f (select a_copy vabs_0_f_f) vabs_0_s_f_f (select a vabs_0_s_f_f) size rnd i))))
(assert (forall ((i Int) (k Int) (size Int) (a (Array Int Int)) (a_copy (Array Int Int))) (=> (assert_24_1_171_abs01 (- (- size 1) k) (select a_copy (- (- size 1) k)) k (select a k) size k i) (= (select a_copy (- (- size 1) k)) (select a k)))))
(assert (forall ((i Int) (k Int) (size Int) (a (Array Int Int)) (a_copy (Array Int Int)) (vabs_0_f_f Int) (vabs_0_s_f_f Int)) (=> (assert_24_1_171_abs01 vabs_0_f_f (select a_copy vabs_0_f_f) vabs_0_s_f_f (select a vabs_0_s_f_f) size k i) (end_abs01 vabs_0_f_f (select a_copy vabs_0_f_f) vabs_0_s_f_f (select a vabs_0_s_f_f) size k i))))
(check-sat)